c $Id$
c
c This file has been automatically generated by Limboole.
c
c 1 PC1
c 2 TC2
c 4 PC2
c 5 TC1
p cnf 24 57
-3 1 0
-3 2 0
3 -1 -2 0
-6 4 0
-6 5 0
6 -4 -5 0
7 -3 0
7 -6 0
-7 3 6 0
8 7 0
-8 -7 0
-9 3 0
-9 8 0
9 -3 -8 0
10 3 0
-10 -3 0
-11 7 0
-11 10 0
11 -7 -10 0
12 -9 0
12 -11 0
-12 9 11 0
13 -1 0
13 -5 0
-13 1 5 0
-14 12 0
-14 13 0
14 -12 -13 0
-15 1 0
-15 5 0
15 -1 -5 0
16 15 0
-16 -15 0
-17 14 0
-17 16 0
17 -14 -16 0
18 -4 0
18 -2 0
-18 4 2 0
-19 17 0
-19 18 0
19 -17 -18 0
-20 4 0
-20 2 0
20 -4 -2 0
21 20 0
-21 -20 0
-22 19 0
-22 21 0
22 -19 -21 0
-23 5 0
-23 4 0
23 -5 -4 0
24 22 0
24 -23 0
-24 -22 23 0
-24 0
